p cnf 35 150
1 4 -2 0
2 -4 -1 0
1 -4 7 0
-7 4 -1 0
1 -2 7 0
-7 2 -1 0
2 -4 7 0
-7 4 -2 0
-3 5 1 0
3 -5 -1 0
8 1 -5 0
-8 5 -1 0
8 1 -3 0
-8 3 -1 0
8 3 -5 0
-8 -3 5 0
2 -3 6 0
-6 3 -2 0
9 -6 2 0
-2 6 -9 0
9 2 -3 0
3 -2 -9 0
9 -6 3 0
-3 6 -9 0
-5 4 6 0
-6 -4 5 0
10 -6 4 0
-4 -10 6 0
10 -5 4 0
-4 5 -10 0
10 -6 5 0
-5 -10 6 0
-8 9 7 0
8 -7 -9 0
10 7 -9 0
9 -7 -10 0
-8 10 7 0
8 -7 -10 0
8 10 -9 0
-8 9 -10 0
11 0
-13 4 -2 0
2 -13 -4 0
2 -13 7 0
-7 -13 -2 0
-7 2 4 13 0
-4 13 -2 7 0
-13 -12 0
12 13 0
-15 5 -3 0
3 -15 -5 0
8 -15 3 0
-8 -15 -3 0
-8 3 5 15 0
8 -5 -3 15 0
-16 -3 6 0
-16 -6 3 0
-16 9 3 0
-16 -3 -9 0
16 3 6 -9 0
16 9 -6 -3 0
-15 -14 0
-16 -14 0
16 14 15 0
2 -4 -18 0
4 -18 -2 0
1 4 -18 0
-4 -18 -1 0
18 2 4 -1 0
1 18 -4 -2 0
-18 -17 0
17 18 0
3 -5 -20 0
5 -20 -3 0
1 -20 5 0
-5 -20 -1 0
3 20 5 -1 0
1 -5 20 -3 0
-21 6 -5 0
-6 -21 5 0
10 -21 5 0
-21 -10 -5 0
5 21 -10 6 0
-6 10 -5 21 0
-20 -19 0
-21 -19 0
19 20 21 0
-23 -6 3 0
-23 -3 6 0
-23 2 6 0
-23 -6 -2 0
3 6 -2 23 0
2 -6 -3 23 0
-24 -6 5 0
-24 -5 6 0
-24 4 6 0
-24 -6 -4 0
24 -4 5 6 0
24 -6 -5 4 0
-23 -22 0
-24 -22 0
24 22 23 0
25 0
-8 9 -27 0
8 -27 -9 0
8 10 -27 0
-8 -27 -10 0
8 9 27 -10 0
-8 10 27 -9 0
-27 -26 0
26 27 0
8 -29 -9 0
-8 9 -29 0
9 -29 7 0
-7 -29 -9 0
8 -7 29 9 0
-8 -9 29 7 0
-29 -28 0
28 29 0
30 0
-31 0
-25 -17 -12 -11 31 0
-31 11 0
-31 12 0
-31 17 0
-31 25 0
-32 0
32 -26 -19 -14 -11 0
-32 11 0
-32 14 0
-32 19 0
-32 26 0
-33 0
33 -28 -22 -14 -12 0
12 -33 0
14 -33 0
22 -33 0
28 -33 0
-34 0
-30 34 -22 -19 -17 0
17 -34 0
19 -34 0
-34 22 0
-34 30 0
-35 0
-30 35 -28 -26 -25 0
25 -35 0
26 -35 0
28 -35 0
-35 30 0
